N = 6;
H = 5;
T = 2;

avail = array3d(1..N, 1..H, 1..T, [7, 3, 7, 0, 7, 3, 4, 4, 10, 1, 8, 2, 7, 5, 1, 9, 10, 6, 3, 10, 7, 2, 4, 0, 1, 8, 7, 7, 4, 2, 0, 8, 3, 0, 6, 7, 8, 0, 9, 3, 3, 9, 4, 4, 6, 1, 6, 2, 6, 1, 9, 9, 7, 7, 7, 9, 4, 10, 8, 5]);

r = array2d(1..H, 1..T, [0, 2, 1, 3, 1, 1, 1, 1, 2, 3]);
